# INCAR FILE AUTOMATICALLY GENERATED 
NELECT=510
IBRION=2
ISIF=0
ISPIN=2
LDMATRIX=.TRUE.
SIGMA=0.001
ENCUT=900
NSW=100
#this should make the difference now
EDIFF=1.0E-12
