# INCAR FILE AUTOMATICALLY GENERATED 
NELECT=62
IBRION=2
NBANDS=56
ISIF=0
ISPIN=2
LDMATRIX=.TRUE.
SIGMA=0.001
ENCUT=900
NSW=100
EDIFF=1.0E-12
