# INCAR FILE AUTOMATICALLY GENERATED 
NELECT=2046
IBRION=2
#NBANDS=1056
ISIF=0
ISPIN=2
LDMATRIX=.TRUE.
SIGMA=0.001
ENCUT=400
NSW=100
EDIFF=1.0E-12
