# INCAR FILE AUTOMATICALLY GENERATED 
NELECT=254
IBRION=2
NBANDS=152
ISIF=0
ISPIN=2
LDMATRIX=.TRUE.
EDIFF=1.0E-12
SIGMA=0.001
ENCUT=900
NSW=100
